peakDumbCharging = 22200; 
Machine = anon_enum(16); 
machineSpeed = [3700,3700,3700,3700,3700,3700,3700,3700,3700,3700,3700,3700,3700,3700,3700,3700]; 
machineLoad = [3700,3700,3700,3700,3700,3700,3700,3700,3700,3700,3700,3700,3700,3700,3700,3700]; 
Car = anon_enum(33); 
demandCar = [4640,14800,2320,6600,12400,8240,4080,4360,6880,8040,4200,9920,11240,14600,9480,2040,14640,4360,6320,14640,16760,1000,10040,2800,2120,7760,11160,13680,4560,11080,25880,34560,26800]; 
arrivalCar = [70,69,68,67,66,66,66,64,63,63,62,61,58,57,57,56,53,50,50,49,46,43,43,42,41,37,35,33,31,30,29,29,27]; 
departureCar = [73,76,70,70,73,71,68,68,67,69,66,69,62,66,68,58,60,53,54,55,56,44,48,44,44,43,42,40,34,36,69,58,67]; 
